c Random 9-CNF over 40 variables and 320 clauses
c Generated with `cnfgen`
c (C) 2012-2016 Massimo Lauria <lauria.massimo@gmail.com>
c https://massimolauria.github.io/cnfgen
c
c COMMAND LINE: cnfgen --output tmp-9-40-320.dimacs --output-format dimacs randkcnf 9 40 320
c
c sdimacs generated by gen-sdimacs
c
p cnf 40 320
e 21 22 23 24 25 26 27 28 29 30 31 32 33 34 35 36 37 38 39 40 0
r 0.37 1 2 3 4 5 6 7 8 9 10 11 12 13 14 15 16 17 18 19 20 0
-6 -9 14 29 31 -32 33 -34 -36 0
-13 -16 17 20 21 25 28 -37 -38 0
-6 -9 13 20 34 -37 -38 39 40 0
-1 8 12 17 -23 -27 28 -34 40 0
1 4 -12 -21 -22 23 30 39 40 0
7 -11 13 -16 -25 -28 29 -31 -35 0
13 19 23 -24 25 28 31 -38 39 0
-1 -2 -4 -6 7 -24 -28 32 -38 0
-1 9 -12 -19 -25 -32 -33 -38 40 0
3 6 8 -15 -21 27 28 -32 -40 0
4 14 -15 16 22 -26 -31 -33 -34 0
3 10 -12 -18 26 27 -30 35 -37 0
-2 5 7 13 -15 -21 -25 26 -28 0
3 -4 -8 10 -20 -23 34 37 -39 0
4 -6 -17 -23 -24 -30 34 -35 -38 0
-1 5 13 21 -23 -24 -33 -34 -39 0
1 -2 -8 -9 -10 15 22 -26 28 0
-4 -6 9 15 -16 27 -28 -35 40 0
-1 -8 -11 -12 -13 -21 -25 27 -31 0
-1 5 6 -11 14 -17 -22 -23 34 0
11 12 23 -24 27 28 -34 37 40 0
4 -5 12 -19 24 -26 -28 -29 -39 0
4 -5 -8 27 29 31 32 33 34 0
-5 -14 17 20 -22 -24 31 38 -40 0
1 2 -7 8 -9 -20 29 -31 -36 0
-1 -6 -7 8 12 25 -28 -30 31 0
-7 -8 -11 -12 24 29 30 33 -39 0
-4 -5 -11 12 -18 25 27 30 31 0
-2 -8 12 -17 25 27 31 -35 37 0
-2 -4 8 16 -17 -23 29 -30 -32 0
-7 15 -16 -21 30 33 -35 37 39 0
-3 -4 -10 13 -19 -29 34 38 39 0
-2 -7 -21 23 -25 -32 34 35 38 0
1 4 17 -28 29 -30 -31 34 38 0
2 4 13 14 -17 18 -33 37 38 0
2 4 -8 12 -20 -30 -32 -35 -37 0
-1 2 5 17 -19 -21 29 -30 36 0
1 -6 -11 19 -20 21 28 -34 36 0
-4 -12 13 -18 20 -21 -35 -37 -39 0
4 9 14 -19 20 26 31 -34 -36 0
-9 17 18 -20 24 -27 -37 39 -40 0
5 -7 -9 23 -26 30 -34 -37 -40 0
-5 7 11 -19 26 -29 -30 -35 -39 0
3 -4 7 -9 -15 -32 36 -37 38 0
-10 12 -14 -16 21 22 -26 32 35 0
4 -7 11 25 -29 32 34 37 39 0
2 -9 12 -21 22 -24 -25 26 -31 0
2 -4 -5 9 13 -14 27 33 -38 0
1 -5 -8 -12 -16 21 -27 29 37 0
1 2 -5 6 9 32 -33 -35 -37 0
-7 8 -10 12 16 25 -27 -29 36 0
-9 18 -21 24 26 31 32 -37 -40 0
5 7 9 -17 20 -29 32 33 37 0
-4 -10 17 18 -20 -30 -31 36 -37 0
2 7 -8 -9 -16 -28 -34 35 37 0
-8 13 -16 -20 25 -26 -30 -31 -36 0
6 14 -28 29 -30 -32 33 -34 40 0
1 -4 7 9 10 14 30 -36 -38 0
-2 3 8 -13 -19 -25 -28 -33 34 0
-5 8 10 12 -22 24 28 37 -39 0
3 -7 11 -13 20 -25 27 31 -37 0
7 -11 16 -20 -21 23 -33 37 -40 0
2 10 17 24 -26 28 -30 -32 -38 0
5 -8 -11 21 -25 -26 31 37 -40 0
-1 3 -4 -8 15 25 -27 33 34 0
1 -6 -14 18 -23 -24 -26 -29 -39 0
5 -11 -18 19 -22 26 -27 33 -39 0
-2 4 -11 -18 19 23 25 -28 33 0
3 -10 14 -16 23 -27 33 -36 -40 0
6 13 15 21 25 26 -29 -34 -38 0
-4 8 -10 13 17 19 24 -26 -29 0
-10 11 14 -18 -19 23 -28 31 36 0
5 10 23 25 -29 32 -33 -36 37 0
3 -5 12 17 19 -20 -21 31 -35 0
-1 -4 5 -6 -10 16 -33 35 -38 0
2 -15 -16 -17 -20 21 25 -30 -38 0
2 6 7 -13 -17 -20 -25 33 39 0
2 -3 -4 12 -24 -25 -28 29 -36 0
-12 16 20 -24 -25 -29 -33 34 40 0
5 -11 13 -14 21 -28 30 -33 37 0
1 -7 11 17 22 26 31 36 -38 0
-10 -11 -17 19 -20 21 -25 -28 -29 0
1 -6 -7 -9 -15 16 19 -28 36 0
1 8 -9 -15 -17 18 22 34 37 0
-1 2 6 12 -21 22 23 -32 39 0
2 -6 9 -10 20 27 28 34 35 0
-3 -7 8 -11 -25 26 -31 33 -39 0
5 7 9 11 24 26 -31 -36 -39 0
1 -3 -4 -5 8 11 -15 23 -24 0
-1 -5 -8 -13 -19 23 -34 -35 -37 0
-9 -13 16 17 20 24 27 28 -30 0
-3 -4 -6 -9 -10 -18 32 34 35 0
8 -12 13 27 -30 32 36 37 -38 0
-1 2 5 -10 15 -17 -23 26 35 0
-1 -11 13 -15 -18 -26 31 32 36 0
2 -4 7 -8 -17 -25 27 -31 -34 0
-6 12 20 25 28 -29 33 -34 -35 0
-5 6 11 18 -19 26 -31 32 37 0
-4 -7 -13 18 -23 24 25 -29 -34 0
2 -3 -8 -14 -16 26 -34 -35 40 0
-1 -2 -4 -10 -12 -17 18 23 -39 0
-4 -10 -13 18 -21 -22 -25 -29 34 0
-2 -7 8 9 11 -19 20 -31 35 0
-1 3 -6 9 -12 -27 29 -30 35 0
-3 -5 -8 -11 14 21 23 38 -40 0
2 9 -18 20 23 24 -25 -29 -31 0
4 5 -9 -17 -19 -25 -26 31 32 0
-5 -10 -11 -23 -28 -30 -32 33 -36 0
6 8 -18 -19 20 -25 -31 34 37 0
-1 -6 -7 21 23 24 -31 33 36 0
-11 -12 16 17 -21 -22 27 33 36 0
4 5 -6 -19 -20 -29 33 38 39 0
-3 -4 -11 15 18 23 -26 27 28 0
-11 -21 26 28 -31 -33 35 39 -40 0
4 -6 -14 17 -20 21 23 -33 39 0
1 10 15 -21 23 24 -25 -28 38 0
-1 4 -5 8 -10 16 -18 -34 40 0
-3 7 12 -16 19 22 25 -28 -38 0
-2 -8 -17 23 28 32 33 -36 39 0
4 -9 10 15 17 -21 -23 24 34 0
-1 5 8 -12 23 28 -32 35 36 0
-6 -16 17 -18 -23 24 29 -32 33 0
-3 11 -17 26 30 -34 38 39 40 0
-3 4 -9 13 16 -21 31 35 -36 0
4 -5 -7 -13 22 -25 27 -28 38 0
1 6 -15 18 -21 22 26 28 -36 0
-1 6 12 -19 -20 -21 -28 -33 -40 0
1 5 -10 -11 -18 -21 -26 27 40 0
11 -15 -17 19 -23 -25 34 36 -38 0
1 -9 15 -16 -20 29 -31 39 -40 0
1 2 -13 15 20 -22 26 32 35 0
-3 6 10 17 -23 26 -27 -33 36 0
-9 -11 -12 15 22 -26 27 -32 -39 0
-1 -4 -8 -12 15 -20 22 25 30 0
-6 -13 14 16 21 23 -26 -31 -33 0
8 13 14 -21 24 25 27 -36 40 0
-4 -18 22 -27 -28 -31 -35 -38 -40 0
1 -6 -8 -9 16 -26 27 34 36 0
4 6 -15 -23 -27 -28 33 34 37 0
-1 2 -10 -15 16 -17 18 -31 39 0
1 2 6 12 -20 24 -25 -29 -35 0
-1 5 6 11 -17 -24 33 36 40 0
1 11 12 14 -17 21 28 -33 -36 0
8 16 -17 22 27 -30 -37 39 40 0
-7 10 -12 -22 -23 28 -29 33 -38 0
-4 -7 -11 17 20 -30 35 -36 -37 0
5 14 -18 -19 20 24 34 36 39 0
2 -5 -7 -16 18 -20 -26 -30 -39 0
13 -14 -24 -26 28 -32 34 -37 39 0
-3 10 -12 -14 18 -23 32 -37 38 0
-6 -8 9 13 -19 -20 28 30 31 0
1 -2 5 -7 14 -24 33 -34 -36 0
10 -12 -13 16 -19 -20 -25 -35 -38 0
-2 15 -17 -19 -27 29 31 -33 34 0
-1 3 -4 -9 -16 -24 -29 -34 38 0
-4 -5 9 23 24 -25 26 33 34 0
-7 8 -9 -12 22 23 28 -32 34 0
2 -7 -11 14 -22 33 34 35 40 0
4 15 19 21 -22 -26 33 35 -37 0
9 25 -28 -31 -32 33 -36 39 40 0
4 12 13 -14 -20 23 29 33 -39 0
-4 -9 -10 -12 -15 28 29 39 -40 0
1 4 5 -6 -9 14 18 -26 33 0
-15 18 -19 -23 -24 -29 -30 -38 39 0
4 11 12 -24 29 32 -33 -36 -37 0
6 -8 -11 17 -24 -29 35 -37 39 0
-9 11 12 -26 29 34 36 -37 -40 0
4 -7 -8 -10 -12 14 -25 -27 -30 0
7 9 15 16 -17 -20 32 -33 -36 0
13 -18 19 -21 -22 25 26 31 38 0
5 10 15 17 18 -20 23 30 40 0
-5 11 21 -24 25 -29 32 35 38 0
-6 -11 -19 25 -29 -31 -37 -38 -39 0
1 -10 -14 15 22 -29 31 -36 38 0
-8 -10 -13 -14 -21 -26 37 -38 39 0
-9 12 14 -15 18 30 -32 -33 39 0
-4 -9 -10 -12 -17 -23 29 35 -40 0
1 -2 -6 -12 18 24 27 31 -36 0
-4 8 -9 -10 -13 -17 -29 -31 -39 0
8 -13 17 -18 -24 27 -30 -36 -38 0
2 -4 -7 -9 22 25 -27 -34 -35 0
-4 -6 10 -21 23 28 29 -32 -33 0
-15 -16 -18 19 21 22 23 26 -29 0
-3 5 -7 -11 -21 23 -24 -35 -36 0
-1 10 -14 20 21 -26 -33 -34 -35 0
-11 17 -18 21 28 -30 -31 37 -40 0
2 -4 -21 26 -27 -31 -33 -34 36 0
5 7 -12 13 25 -28 32 36 -38 0
4 -7 9 11 23 27 31 35 39 0
-5 -16 -20 26 27 -30 32 37 -40 0
2 9 -14 -17 -19 21 26 -37 38 0
6 11 18 19 29 31 -34 -36 -39 0
1 -3 4 -9 -13 -24 25 -27 40 0
-3 -5 -6 8 -17 -24 -28 -38 39 0
-3 -6 8 14 -19 -29 30 31 39 0
3 4 -8 10 -21 23 -30 -36 -38 0
-9 -12 -13 -19 -20 -21 28 38 39 0
4 6 15 -19 23 -24 27 -30 37 0
-8 -13 14 15 -22 -23 30 35 -39 0
3 11 -18 -19 20 -26 -27 32 -39 0
2 5 -10 14 -15 -17 33 36 38 0
13 -20 23 28 31 -32 34 35 -37 0
-1 21 23 24 -28 29 31 -37 -39 0
-4 5 -16 18 22 27 -28 29 -35 0
-1 2 10 -15 19 -25 31 38 40 0
12 13 -17 21 23 27 34 36 -37 0
1 -5 -7 12 -13 23 26 29 -37 0
4 5 6 -19 24 33 -34 38 -40 0
1 6 10 15 17 19 32 -33 40 0
3 9 10 -16 19 24 32 -34 36 0
2 -10 11 -14 18 -24 27 -29 37 0
-3 5 -8 -9 11 29 30 37 -38 0
3 -9 11 -15 -17 18 -20 34 -35 0
-4 -5 6 -11 -16 -35 36 39 -40 0
-9 -11 -13 -21 -24 25 -32 34 -40 0
3 -5 -6 -7 9 -17 18 -21 -23 0
-3 -4 -9 11 -26 -29 -33 35 -37 0
-4 -5 9 18 -19 -29 32 -36 -37 0
-4 6 -7 -8 10 17 -31 38 -39 0
9 12 20 29 -30 33 -36 -37 39 0
2 -5 6 -22 -23 25 -28 -37 38 0
-1 -3 4 -10 -16 -23 -27 38 39 0
-4 -5 7 10 -17 19 -24 -27 32 0
-3 12 -13 -14 22 31 -34 35 36 0
2 10 -11 -17 -19 20 22 -25 28 0
-3 5 6 14 15 26 -30 -38 -39 0
-8 9 -11 12 -27 29 -31 -36 39 0
-1 -8 -16 26 -27 -30 -31 -35 37 0
-5 10 -13 -14 -16 -24 -31 33 -37 0
-2 -7 8 -17 23 26 -30 -35 37 0
-9 -10 -11 -13 -17 -21 -31 -33 -34 0
-2 11 14 -16 -19 22 -24 29 30 0
-3 -6 10 12 -23 25 32 -35 36 0
-1 -5 -8 -17 19 26 28 -29 34 0
1 -7 -15 17 -18 19 -25 -27 -31 0
-3 -5 -7 11 -25 28 -31 38 39 0
6 -7 9 16 -21 26 29 36 -39 0
3 -9 10 -17 -20 29 -31 32 35 0
-3 -4 6 -19 -21 28 -32 -35 -40 0
3 8 9 17 18 21 25 -35 38 0
2 -9 -12 -14 -21 22 23 -24 38 0
4 -8 9 -12 14 16 -22 -27 -31 0
-9 11 -13 19 -21 -23 -26 33 34 0
5 -8 -10 12 23 25 32 -35 40 0
1 -6 -8 13 15 22 26 33 -38 0
5 16 17 -20 23 -31 -34 35 36 0
-1 -10 -12 -17 -22 -26 31 32 34 0
4 14 19 21 23 27 -32 -34 38 0
-1 -3 -20 26 27 -30 -31 35 36 0
7 -8 -9 -11 14 -15 25 27 -33 0
-9 15 -20 21 22 28 33 -36 -40 0
5 6 -13 17 19 25 -27 -28 33 0
-3 -13 -14 -17 -18 28 34 36 38 0
-7 10 -11 -19 25 -27 -31 37 -38 0
2 4 -18 -20 -22 -27 -29 -31 -39 0
12 14 19 23 25 -26 -31 -34 -35 0
4 -6 -7 9 21 -27 29 33 -40 0
-6 -9 -10 -11 12 13 25 28 -32 0
-4 -9 16 18 21 -24 28 36 -37 0
-2 5 -9 23 25 33 35 37 38 0
14 -16 23 -29 -31 -32 33 -35 40 0
9 10 -13 -14 -15 16 27 -35 -38 0
2 -12 -15 -18 21 -22 -28 34 -38 0
-10 15 16 17 -23 -26 36 -37 -38 0
-1 4 -11 16 -19 -25 -29 33 38 0
-4 12 14 -18 20 23 -25 -27 -35 0
-4 5 11 -12 14 17 -29 33 -38 0
8 -12 21 -22 26 -30 32 36 38 0
-12 15 -24 25 30 33 34 35 -38 0
-6 -7 14 -17 20 21 38 39 40 0
2 3 -6 8 9 17 -18 20 27 0
2 -4 -21 28 -29 31 -33 37 -38 0
1 -7 -14 -16 25 28 -34 36 37 0
-3 6 -9 -10 31 -32 -33 -36 -39 0
3 -5 -8 9 -11 -14 21 -25 -29 0
-1 -12 13 -14 -22 -24 27 -33 38 0
-2 3 8 -9 -19 29 -33 -39 40 0
-3 -7 8 -9 19 -20 33 -34 40 0
4 -11 -15 -19 -20 -26 -33 38 39 0
-7 10 15 16 19 21 23 -24 -31 0
-1 8 11 -22 -23 -27 -29 -30 -33 0
-5 -7 11 12 14 16 20 -25 35 0
5 16 -23 27 29 -30 -35 -36 -38 0
2 6 12 15 -19 -31 -35 37 40 0
4 -8 9 18 22 31 36 37 -38 0
2 -10 -13 17 20 21 37 39 -40 0
-1 6 9 -15 -21 23 29 -33 -35 0
-14 -15 19 20 21 -26 29 -33 38 0
-13 -24 25 -26 27 -34 37 -38 -39 0
-4 -9 -11 -16 19 22 -27 30 -35 0
2 -10 12 17 22 28 -29 38 40 0
1 2 -3 10 13 22 -24 26 30 0
4 -8 17 22 23 -25 -28 31 -40 0
4 11 -13 14 18 20 -21 25 -28 0
-1 7 14 -15 -16 -17 22 31 37 0
-4 10 13 -17 20 29 33 -34 -37 0
1 6 -9 12 -14 16 -21 -33 -37 0
1 2 3 -7 13 19 -22 35 -39 0
1 -2 3 14 20 23 24 29 31 0
-10 12 -20 22 32 34 -35 -37 40 0
5 8 12 -22 -27 29 -33 -35 -38 0
3 -9 -13 15 24 26 27 28 38 0
1 -4 11 18 -19 22 -26 -36 -39 0
2 -3 17 -20 24 -26 -34 36 -39 0
-1 14 15 16 21 -24 31 -38 40 0
-6 -9 10 -15 19 -23 -26 -32 37 0
2 -3 10 14 15 -19 28 -32 -38 0
2 9 12 20 26 34 -36 -37 40 0
-1 -6 10 14 15 19 -20 -31 -40 0
-1 7 -11 18 22 -25 -27 36 -39 0
9 -13 -17 21 28 29 -30 35 40 0
-6 -9 15 -21 25 30 31 -33 40 0
2 5 16 -18 19 -20 21 -36 40 0
6 15 -17 28 -29 -31 32 -35 -37 0
-1 -17 -18 -21 -22 -33 -34 -38 -39 0
-9 -10 16 17 -18 19 28 33 39 0
2 -4 -14 16 17 -27 -29 -39 40 0
-2 6 -20 -21 31 -32 -33 34 -38 0
-5 6 -7 -11 -12 -20 -24 28 37 0
-2 5 6 -8 -25 -27 31 32 33 0
